c p0=0.08
p cnf 10 43
-8 1 9 0
-1 -6 -7 0
-6 -10 -1 0
-4 2 6 0
-9 -2 -3 0
9 10 7 0
7 -6 -2 0
9 -4 3 0
-5 -8 7 0
-9 -8 -10 0
1 10 -3 0
-10 -7 3 0
-5 -4 1 0
-10 7 2 0
-7 6 -1 0
-2 10 -9 0
-2 1 -10 0
-10 9 1 0
10 -4 -1 0
-6 7 2 0
7 -6 -4 0
-6 -7 -8 0
6 -9 7 0
-10 -7 -8 0
9 8 4 0
3 -9 -4 0
-10 -3 -6 0
-10 -1 -7 0
8 3 -6 0
10 -5 -2 0
6 -10 -5 0
-1 4 5 0
-6 -3 -1 0
-7 5 1 0
-8 4 -9 0
10 -6 3 0
10 1 -6 0
-6 -10 7 0
-4 10 -1 0
-3 1 6 0
5 1 3 0
1 5 9 0
6 -1 -5 0
